%SETS
JOBS     = 1..2;
MACHINES = 1..11;
SPEED    = 1;

time               = array3d(JOBS,MACHINES,1..SPEED,[57, 61, 93, 16, 17, 11, 84, 80, 88, 98, 81, 51, 80, 20, 67, 22, 95, 56, 47, 33, 79, 51]);
energy             = array3d(JOBS,MACHINES,1..SPEED,[56, 54, 39, 85, 84, 89, 43, 44, 41, 37, 44, 60, 44, 81, 51, 80, 38, 57, 62, 71, 45, 60]);
precedence         = array2d(JOBS,MACHINES,[9,2,10,0,7,6,5,3,4,8,1,0,7,2,3,10,4,5,6,8,9,1]);